500
1000
495
492
491
489
489
489
488
488
486
485
485
484
483
482
481
481
479
479
478
478
477
476
475
475
475
475
473
473
472
472
469
468
468
468
468
467
467
466
466
466
466
465
465
464
463
462
461
459
459
459
457
457
456
456
456
456
456
454
453
452
452
452
451
449
448
448
447
446
446
446
446
445
444
444
444
444
443
443
443
443
442
442
442
439
438
437
436
435
435
434
434
433
433
431
431
431
430
430
430
430
429
427
427
426
426
425
425
425
424
424
424
423
422
422
422
422
421
421
418
417
417
416
416
416
416
415
414
413
412
412
411
411
411
410
408
407
406
405
403
403
403
402
400
399
399
399
398
398
397
397
397
395
395
395
393
392
392
391
390
390
387
385
384
383
383
382
381
381
381
380
380
379
379
378
378
377
376
376
375
375
374
373
372
371
371
371
370
370
370
369
368
367
366
366
366
365
365
365
364
364
364
362
362
362
360
356
355
354
354
353
353
351
351
350
349
348
346
346
344
344
343
341
341
340
339
338
336
333
333
333
332
332
329
329
327
327
327
326
325
325
325
325
323
323
323
322
322
321
321
321
321
321
321
320
320
320
319
318
318
317
317
316
316
316
315
314
312
312
312
312
311
311
311
311
309
308
306
306
305
305
305
305
304
304
304
304
303
303
303
303
303
299
299
299
298
298
297
297
296
296
295
294
293
292
292
290
290
289
288
288
288
287
285
285
285
284
283
282
279
277
277
277
277
276
275
275
274
273
272
272
270
268
267
266
266
266
266
265
264
264
264
264
264
264
263
263
263
263
262
261
261
261
259
258
257
257
256
255
255
255
254
253
253
253
251
251
251
250
250
250
249
247
246
245
244
244
242
241
240
238
237
237
236
235
233
233
233
232
232
231
231
230
230
229
228
227
227
226
226
225
225
225
225
224
223
222
221
221
220
219
216
216
216
215
214
214
214
213
213
212
212
211
211
209
208
207
207
207
206
206
205
205
205
204
204
203
203
202
201
201
201
201
201
200
199
198
198
197
197
195
193
193
192
191
190
190
190
188
188
187
187
187
187
186
186
185
185
184
184
183
182
182
182
182
182
180
180
180
180
180
180
179
177
177
177
176
175
175
175
175
174
172
171
171
170
169
168
168
168
167
